param set_len = 30;
param target_sum = 7089063793;
param values := [1] 243277125 [2] 181536117 [3] 984147376 [4] 191797441 [5] 234662194 [6] 404278287 [7] 907786652 [8] 325475541 [9] 957488143 [10] 44521306 [11] 259601679 [12] 813396087 [13] 517263124 [14] 456150301 [15] 726816202 [16] 905603880 [17] 665650249 [18] 333361633 [19] 584630372 [20] 190175548 [21] 183704854 [22] 260274814 [23] 411659430 [24] 300497321 [25] 837319219 [26] 140875113 [27] 264878759 [28] 439347461 [29] 343446748 [30] 934878029 ;
